ilp_joint/output/digestion_ilp.lp
Maximize
  0.0204013165694266 Z_268_1_0 + 0.0381540339488707 Z_268_1_1
   + 0.0640467841927245 Z_268_1_2 + 0.1899878203108032 Z_268_1_3
   + 0.1214763617991888 Z_268_2_0 + 0.0840778474237824 Z_268_2_1
   + 0.011975775996746 Z_268_2_2 + 0.8387900210305523 Z_268_2_3
   + 0.00484327457615237 Z_268_0_0 + 0.0023980536800814 Z_268_0_1
   + 0.8736925138862707 Z_268_0_2 + 0.0121080911944687 Z_268_0_3
   + 0.00209600860598357 Z_179_0_0 + 0.00728969718580438 Z_179_0_1
   + 0.8828953248999186 Z_179_0_2 + 0.0224770054388191 Z_179_0_3
   + 0.014331638761618 Z_249_0_0 + 0.00541997256978554 Z_249_0_1
   + 0.6964651576316806 Z_249_0_2 + 0.0166219386297965 Z_249_0_3
   + 0.0025527449166441 Z_644_0_0 + 0.0036132726003234 Z_644_0_1
   + 0.8750598318468815 Z_644_0_2 + 0.0182778968964776 Z_644_0_3 + [
   0.4 Z_268_0_0 * Z_179_0_0 + 4.21656e-06 Z_268_0_0 * Z_249_0_0
   + 0.4 Z_268_0_0 * Z_644_0_0 + 0.4 Z_268_0_1 * Z_179_0_1
   + 4.21656e-06 Z_268_0_1 * Z_249_0_1 + 0.4 Z_268_0_1 * Z_644_0_1
   + 0.4 Z_268_0_2 * Z_179_0_2 + 4.21656e-06 Z_268_0_2 * Z_249_0_2
   + 0.4 Z_268_0_2 * Z_644_0_2 + 0.4 Z_268_0_3 * Z_179_0_3
   + 4.21656e-06 Z_268_0_3 * Z_249_0_3 + 0.4 Z_268_0_3 * Z_644_0_3
   + 4.21656e-06 Z_179_0_0 * Z_249_0_0 + 0.4 Z_179_0_0 * Z_644_0_0
   + 4.21656e-06 Z_179_0_1 * Z_249_0_1 + 0.4 Z_179_0_1 * Z_644_0_1
   + 4.21656e-06 Z_179_0_2 * Z_249_0_2 + 0.4 Z_179_0_2 * Z_644_0_2
   + 4.21656e-06 Z_179_0_3 * Z_249_0_3 + 0.4 Z_179_0_3 * Z_644_0_3
   + 4.21656e-06 Z_249_0_0 * Z_644_0_0 + 4.21656e-06 Z_249_0_1 * Z_644_0_1
   + 4.21656e-06 Z_249_0_2 * Z_644_0_2 + 4.21656e-06 Z_249_0_3 * Z_644_0_3
   ] / 2 
Subject To
 constraint1_2681: Z_268_1_0 + Z_268_1_1 + Z_268_1_2 + Z_268_1_3 <= 1
 constraint1_2682: Z_268_2_0 + Z_268_2_1 + Z_268_2_2 + Z_268_2_3 <= 1
 constraint1_2680: Z_268_0_0 + Z_268_0_1 + Z_268_0_2 + Z_268_0_3 <= 1
 constraint1_1790: Z_179_0_0 + Z_179_0_1 + Z_179_0_2 + Z_179_0_3 <= 1
 constraint1_2490: Z_249_0_0 + Z_249_0_1 + Z_249_0_2 + Z_249_0_3 <= 1
 constraint1_6440: Z_644_0_0 + Z_644_0_1 + Z_644_0_2 + Z_644_0_3 <= 1
 constraint2_2680: Z_268_1_0 + Z_268_2_0 + Z_268_0_0 <= 1
 constraint2_2681: Z_268_1_1 + Z_268_2_1 + Z_268_0_1 <= 1
 constraint2_2682: Z_268_1_2 + Z_268_2_2 + Z_268_0_2 <= 1
 constraint2_2683: Z_268_1_3 + Z_268_2_3 + Z_268_0_3 <= 1
 constraint2_1790: Z_179_0_0 <= 1
 constraint2_1791: Z_179_0_1 <= 1
 constraint2_1792: Z_179_0_2 <= 1
 constraint2_1793: Z_179_0_3 <= 1
 constraint2_2490: Z_249_0_0 <= 1
 constraint2_2491: Z_249_0_1 <= 1
 constraint2_2492: Z_249_0_2 <= 1
 constraint2_2493: Z_249_0_3 <= 1
 constraint2_6440: Z_644_0_0 <= 1
 constraint2_6441: Z_644_0_1 <= 1
 constraint2_6442: Z_644_0_2 <= 1
 constraint2_6443: Z_644_0_3 <= 1
Bounds
Binaries
 Z_268_1_0 Z_268_1_1 Z_268_1_2 Z_268_1_3 Z_268_2_0 Z_268_2_1 Z_268_2_2
 Z_268_2_3 Z_268_0_0 Z_268_0_1 Z_268_0_2 Z_268_0_3 Z_179_0_0 Z_179_0_1
 Z_179_0_2 Z_179_0_3 Z_249_0_0 Z_249_0_1 Z_249_0_2 Z_249_0_3 Z_644_0_0
 Z_644_0_1 Z_644_0_2 Z_644_0_3
End
