ilp_joint/output/digestion_ilp.mps
NAME digestion_srl_ilp
* Max problem is converted into Min one
ROWS
 N  OBJ
 L  constraint1_1160
 L  constraint2_1160
 L  constraint2_1161
 L  constraint2_1162
 L  constraint2_1163
COLUMNS
    MARKER    'MARKER'                 'INTORG'
    Z_116_0_0  OBJ       -1.2740147017283697e-04
    Z_116_0_0  constraint1_1160  1
    Z_116_0_0  constraint2_1160  1
    Z_116_0_1  OBJ       -3.9223311391892637e-03
    Z_116_0_1  constraint1_1160  1
    Z_116_0_1  constraint2_1161  1
    Z_116_0_2  OBJ       -7.4247864028833654e-01
    Z_116_0_2  constraint1_1160  1
    Z_116_0_2  constraint2_1162  1
    Z_116_0_3  OBJ       -2.7462782654818580e-04
    Z_116_0_3  constraint1_1160  1
    Z_116_0_3  constraint2_1163  1
    Z_116_0_4  OBJ       -1.5319699927575317e-01
    Z_116_0_4  constraint1_1160  1
    MARKER    'MARKER'                 'INTEND'
RHS
    RHS1      constraint1_1160  1
    RHS1      constraint2_1160  1
    RHS1      constraint2_1161  1
    RHS1      constraint2_1162  1
    RHS1      constraint2_1163  1
BOUNDS
 UP BND1      Z_116_0_0  1
 UP BND1      Z_116_0_1  1
 UP BND1      Z_116_0_2  1
 UP BND1      Z_116_0_3  1
 UP BND1      Z_116_0_4  1
ENDATA
