ilp_joint/output/digestion_ilp.sol
# Solution for model digestion_srl_ilp
# Objective value = 4.8050632080881623e+00
Z_268_1_0 0
Z_268_1_1 1
Z_268_1_2 0
Z_268_1_3 0
Z_268_2_0 0
Z_268_2_1 0
Z_268_2_2 0
Z_268_2_3 1
Z_268_0_0 0
Z_268_0_1 0
Z_268_0_2 1
Z_268_0_3 0
Z_179_0_0 0
Z_179_0_1 0
Z_179_0_2 1
Z_179_0_3 0
Z_249_0_0 0
Z_249_0_1 0
Z_249_0_2 1
Z_249_0_3 0
Z_644_0_0 0
Z_644_0_1 0
Z_644_0_2 1
Z_644_0_3 0
